# Restart from checkpoint
read_restart    restart.lj.*

pair_style      lj/cut 2.5
pair_coeff      1 1 1.0 1.0 2.5

neighbor        0.3 bin
neigh_modify    delay 0 every 20 check no

fix             1 all nve

# Continue checkpoint
restart         1000 restart.lj

run             10000
